p edge 100 495
e 1 14
e 1 20
e 1 22
e 1 27
e 1 38
e 1 45
e 1 53
e 1 61
e 1 63
e 1 71
e 1 74
e 1 80
e 1 100
e 2 12
e 2 35
e 2 45
e 2 64
e 2 70
e 2 75
e 2 84
e 3 11
e 3 20
e 3 22
e 3 24
e 3 38
e 3 42
e 3 50
e 3 79
e 3 82
e 3 85
e 3 90
e 3 91
e 4 6
e 4 9
e 4 27
e 4 39
e 4 40
e 4 47
e 4 57
e 4 62
e 4 65
e 4 82
e 4 92
e 4 98
e 5 6
e 5 9
e 5 10
e 5 24
e 5 55
e 5 59
e 5 63
e 6 14
e 6 22
e 6 30
e 6 41
e 6 44
e 6 53
e 6 70
e 6 81
e 6 88
e 7 9
e 7 10
e 7 11
e 7 13
e 7 19
e 7 22
e 7 24
e 7 29
e 7 37
e 7 67
e 7 71
e 7 72
e 7 89
e 7 90
e 7 98
e 8 11
e 8 52
e 8 60
e 8 77
e 8 92
e 8 100
e 9 14
e 9 29
e 9 35
e 9 40
e 9 45
e 9 57
e 9 72
e 9 74
e 9 82
e 9 85
e 9 96
e 10 16
e 10 26
e 10 27
e 10 32
e 10 39
e 10 52
e 10 68
e 10 72
e 11 31
e 11 38
e 11 39
e 11 57
e 11 61
e 11 69
e 11 97
e 12 29
e 12 37
e 12 42
e 12 51
e 12 65
e 12 72
e 12 83
e 12 86
e 13 25
e 13 43
e 13 45
e 13 51
e 13 55
e 13 85
e 13 87
e 14 57
e 14 59
e 14 71
e 14 72
e 14 74
e 14 81
e 14 85
e 14 86
e 14 88
e 14 93
e 15 21
e 15 25
e 15 39
e 15 71
e 15 72
e 15 73
e 15 86
e 15 91
e 15 100
e 16 37
e 16 42
e 16 49
e 16 57
e 16 62
e 16 72
e 16 73
e 16 88
e 16 94
e 17 34
e 17 35
e 17 36
e 17 47
e 17 67
e 18 20
e 18 26
e 18 42
e 18 44
e 18 48
e 18 49
e 18 51
e 18 54
e 18 64
e 18 72
e 18 82
e 18 93
e 19 47
e 19 52
e 19 75
e 20 22
e 20 44
e 20 52
e 20 54
e 20 58
e 20 69
e 20 75
e 20 92
e 21 27
e 21 31
e 21 51
e 21 66
e 21 71
e 22 28
e 22 32
e 22 39
e 22 40
e 22 47
e 22 58
e 22 61
e 22 75
e 22 81
e 23 34
e 23 51
e 23 56
e 23 58
e 23 61
e 23 76
e 23 82
e 23 85
e 23 88
e 24 28
e 24 50
e 24 81
e 24 84
e 24 91
e 24 93
e 24 94
e 24 99
e 25 47
e 25 58
e 25 64
e 25 66
e 25 80
e 25 100
e 26 41
e 26 53
e 26 56
e 26 58
e 26 98
e 27 28
e 27 50
e 27 53
e 27 57
e 27 59
e 27 69
e 27 85
e 27 86
e 28 38
e 28 42
e 28 73
e 28 77
e 28 81
e 28 84
e 28 85
e 28 98
e 29 30
e 29 39
e 29 44
e 29 48
e 29 52
e 29 59
e 29 75
e 29 81
e 29 98
e 30 35
e 30 36
e 30 41
e 30 62
e 30 66
e 30 80
e 30 81
e 30 83
e 31 35
e 31 40
e 31 56
e 31 57
e 31 58
e 31 66
e 31 70
e 31 78
e 31 79
e 31 83
e 31 87
e 31 96
e 32 33
e 32 53
e 32 66
e 32 67
e 32 74
e 32 78
e 32 92
e 32 93
e 33 37
e 33 40
e 33 42
e 33 52
e 33 59
e 33 68
e 33 69
e 33 85
e 33 90
e 34 36
e 34 37
e 34 48
e 34 51
e 34 52
e 34 73
e 34 77
e 34 93
e 34 95
e 35 44
e 35 56
e 35 74
e 35 78
e 35 80
e 35 84
e 36 74
e 36 89
e 36 91
e 36 100
e 37 38
e 37 47
e 37 49
e 37 69
e 37 77
e 37 82
e 37 94
e 37 99
e 38 39
e 38 40
e 38 72
e 38 74
e 38 78
e 38 81
e 38 82
e 38 85
e 38 96
e 39 43
e 39 71
e 39 84
e 39 94
e 39 98
e 40 43
e 40 49
e 40 73
e 40 76
e 40 95
e 41 47
e 41 55
e 41 69
e 41 71
e 41 75
e 41 83
e 41 95
e 42 44
e 42 46
e 42 54
e 42 65
e 42 78
e 42 87
e 43 67
e 43 87
e 44 51
e 44 54
e 44 55
e 44 60
e 44 64
e 44 69
e 45 63
e 45 70
e 45 96
e 46 52
e 46 54
e 46 65
e 46 69
e 46 89
e 46 93
e 46 97
e 46 98
e 47 62
e 47 70
e 47 74
e 47 80
e 48 50
e 48 52
e 48 54
e 48 56
e 48 63
e 48 70
e 48 77
e 48 81
e 48 90
e 49 61
e 49 81
e 49 96
e 49 99
e 50 85
e 50 90
e 51 53
e 51 87
e 52 55
e 52 56
e 52 60
e 52 62
e 53 56
e 53 59
e 53 62
e 53 63
e 53 66
e 53 90
e 53 94
e 53 100
e 54 56
e 54 92
e 54 93
e 55 67
e 55 69
e 55 78
e 55 83
e 55 92
e 55 94
e 56 59
e 56 60
e 56 70
e 57 81
e 59 71
e 59 75
e 59 78
e 59 80
e 59 82
e 59 83
e 59 92
e 59 95
e 60 67
e 60 70
e 60 76
e 61 70
e 61 74
e 61 86
e 61 99
e 62 76
e 62 81
e 62 87
e 63 70
e 63 90
e 63 96
e 63 100
e 64 75
e 64 91
e 64 94
e 65 66
e 65 70
e 65 85
e 66 83
e 66 92
e 66 99
e 67 68
e 67 74
e 67 81
e 67 92
e 68 71
e 68 93
e 69 77
e 69 88
e 70 74
e 70 83
e 70 94
e 70 96
e 71 83
e 71 88
e 72 87
e 72 89
e 73 81
e 73 91
e 73 97
e 74 77
e 74 80
e 74 81
e 75 78
e 76 92
e 77 78
e 77 85
e 77 90
e 77 94
e 78 79
e 78 85
e 79 98
e 80 81
e 80 82
e 80 95
e 80 96
e 81 82
e 81 93
e 81 94
e 81 99
e 82 94
e 82 99
e 82 100
e 84 85
e 84 94
e 84 99
e 85 96
e 86 91
e 88 91
e 88 97
e 89 93
e 90 93
e 90 99
e 91 93
e 91 96
e 92 99
e 93 96
e 93 98
e 96 98
